1625135400
1625149800
1625221800
1625236560
1625481000
1625496180
1625567400
1625585640
1625581800
1625653800
1625669520
1625740200
1625754720
1625826600
1625841480
1626085800
1626101340
1626172200
1626186600
1626258600
1626273000
1626345000
1626359580
1626431400
1626446100
1626690600
1626705120
1626777000
1626791760
1626867000
1626881340
1626949800
1626964380
1627036200
1627050600
1627295400
1627310640
1627381800
1627396260
1627468200
1627482660
1627554600
1627569000
1627641000
1627655400
